(set-logic QF_S)
(declare-fun var0 () String)
(assert (str.in.re var0 (re.++ (re.+ (re.* (str.to.re "00"))) (re.++ (re.union (re.* (str.to.re "11")) (re.* (str.to.re "2"))) (re.++ (re.union (re.+ (str.to.re "33")) (re.+ (str.to.re "444"))) (re.++ (re.union (re.+ (str.to.re "55")) (re.+ (str.to.re "666"))) (re.++ (re.* (re.* (str.to.re "777"))) (re.++ (re.* (re.union (str.to.re "8") (str.to.re "999"))) (re.++ (re.union (re.+ (str.to.re "aa")) (re.+ (str.to.re "bb"))) (re.++ (re.union (re.* (str.to.re "c")) (re.* (str.to.re "d"))) (re.++ (re.union (re.* (str.to.re "ee")) (re.* (str.to.re "f"))) (re.++ (re.+ (re.+ (str.to.re "ggg"))) (re.++ (re.* (re.union (str.to.re "hhh") (str.to.re "iii"))) (re.++ (re.* (re.union (str.to.re "j") (str.to.re "k"))) (re.++ (re.* (re.* (str.to.re "lll"))) (re.++ (re.* (re.+ (str.to.re "m"))) (re.++ (re.union (re.union (str.to.re "n") (str.to.re "ooo")) (re.union (str.to.re "p") (str.to.re "qq"))) (re.++ (re.* (re.union (str.to.re "rrr") (str.to.re "ss"))) (re.++ (re.+ (re.union (str.to.re "t") (str.to.re "uu"))) (re.++ (re.union (re.union (str.to.re "vv") (str.to.re "www")) (re.union (str.to.re "x") (str.to.re "y"))) (re.++ (re.union (re.union (str.to.re "z") (str.to.re "AAA")) (re.union (str.to.re "BBB") (str.to.re "CCC"))) (re.++ (re.union (re.+ (str.to.re "DDD")) (re.+ (str.to.re "EEE"))) (re.++ (re.union (re.union (str.to.re "FFF") (str.to.re "G")) (re.union (str.to.re "H") (str.to.re "III"))) (re.++ (re.+ (re.+ (str.to.re "JJ"))) (re.++ (re.* (re.union (str.to.re "KK") (str.to.re "LL"))) (re.++ (re.* (re.+ (str.to.re "MM"))) (re.++ (re.union (re.union (str.to.re "NNN") (str.to.re "OO")) (re.union (str.to.re "PPP") (str.to.re "QQ"))) (re.++ (re.+ (re.+ (str.to.re "R"))) (re.++ (re.union (re.* (str.to.re "SSS")) (re.* (str.to.re "TT"))) (re.++ (re.* (re.+ (str.to.re "U"))) (re.++ (re.+ (re.union (str.to.re "V") (str.to.re "WWW"))) (re.++ (re.* (re.union (str.to.re "X") (str.to.re "YYY"))) (re.++ (re.+ (re.+ (str.to.re "Z"))) (re.++ (re.union (re.union (str.to.re "!!") (str.to.re """")) (re.union (str.to.re "##") (str.to.re "$$$"))) (re.++ (re.union (re.+ (str.to.re "%%")) (re.+ (str.to.re "&&&"))) (re.++ (re.union (re.union (str.to.re "'''") (str.to.re "((")) (re.union (str.to.re "))") (str.to.re "**"))) (re.++ (re.* (re.+ (str.to.re "+"))) (re.+ (re.union (str.to.re ",,") (str.to.re "-"))))))))))))))))))))))))))))))))))))))))
(check-sat)